c A SAT instance generated from a 3-CNF formula that had 21 clauses and 7 variables
p cnf 7 21
-5 7 -4 0
2 5 6 0
7 5 -4 0
-3 -5 -7 0
2 -3 -4 0
6 1 -7 0
-3 5 -2 0
-4 -2 6 0
-3 5 4 0
1 -4 -3 0
-3 4 1 0
-2 -1 -4 0
-4 7 -5 0
6 2 7 0
6 -4 -1 0
-7 6 -4 0
-6 -7 -3 0
-4 -5 1 0
-5 -1 -4 0
4 5 6 0
2 1 -5 0
